data/CVRPLIB/Vrp-Set-XML100/instances/XML100_1115_20.vrp
NAME : XML100_1115_20
COMMENT : Generated by Queiroga, Sadykov, Uchoa, and Vidal (2021)
TYPE : CVRP
DIMENSION : 101
EDGE_WEIGHT_TYPE : EUC_2D
CAPACITY : 18
NODE_COORD_SECTION
1    512  134 
2    717  441 
3    821  422 
4    674  494 
5    7    448 
6    112  291 
7    789  392 
8    47   956 
9    402  678 
10   273  685 
11   511  266 
12   737  568 
13   274  317 
14   976  960 
15   403  141 
16   518  465 
17   174  226 
18   883  597 
19   638  251 
20   94   555 
21   194  481 
22   607  652 
23   672  848 
24   701  803 
25   258  655 
26   18   298 
27   802  540 
28   618  652 
29   223  748 
30   566  2   
31   923  735 
32   750  712 
33   874  715 
34   843  197 
35   919  547 
36   154  112 
37   774  914 
38   152  370 
39   548  516 
40   136  957 
41   764  378 
42   372  911 
43   893  754 
44   999  475 
45   685  933 
46   856  89  
47   165  399 
48   807  976 
49   476  704 
50   439  813 
51   348  473 
52   182  537 
53   341  801 
54   717  602 
55   599  916 
56   705  997 
57   428  330 
58   199  291 
59   476  362 
60   808  767 
61   919  841 
62   563  66  
63   650  534 
64   337  273 
65   32   180 
66   708  155 
67   328  244 
68   288  351 
69   187  791 
70   763  238 
71   66   30  
72   651  892 
73   163  166 
74   447  628 
75   956  346 
76   348  679 
77   575  266 
78   875  685 
79   600  873 
80   961  694 
81   69   551 
82   900  823 
83   28   154 
84   986  435 
85   324  320 
86   216  177 
87   768  980 
88   715  259 
89   936  412 
90   308  462 
91   270  886 
92   615  719 
93   589  62  
94   96   309 
95   555  66  
96   668  713 
97   805  724 
98   376  163 
99   351  724 
100  352  222 
101  662  330 
DEMAND_SECTION
1    0   
2    1   
3    1   
4    1   
5    1   
6    1   
7    1   
8    1   
9    1   
10   1   
11   1   
12   1   
13   1   
14   1   
15   1   
16   1   
17   1   
18   1   
19   1   
20   1   
21   1   
22   1   
23   1   
24   1   
25   1   
26   1   
27   1   
28   1   
29   1   
30   1   
31   1   
32   1   
33   1   
34   1   
35   1   
36   1   
37   1   
38   1   
39   1   
40   1   
41   1   
42   1   
43   1   
44   1   
45   1   
46   1   
47   1   
48   1   
49   1   
50   1   
51   1   
52   1   
53   1   
54   1   
55   1   
56   1   
57   1   
58   1   
59   1   
60   1   
61   1   
62   1   
63   1   
64   1   
65   1   
66   1   
67   1   
68   1   
69   1   
70   1   
71   1   
72   1   
73   1   
74   1   
75   1   
76   1   
77   1   
78   1   
79   1   
80   1   
81   1   
82   1   
83   1   
84   1   
85   1   
86   1   
87   1   
88   1   
89   1   
90   1   
91   1   
92   1   
93   1   
94   1   
95   1   
96   1   
97   1   
98   1   
99   1   
100  1   
101  1   
DEPOT_SECTION
1
-1
EOF
