data/CVRPLIB/Vrp-Set-XML100/solutions/XML100_1115_20.sol
Route #1: 94 61 29 92 65 45 33 74 88 83 43 34 2 6 40 69 87 18
Route #2: 14 97 99 66 63 12 67 84 56 10
Route #3: 58 73 48 8 75 98 52 49 41 90 39 7 68 28 9 24 89 50
Route #4: 3 11 53 31 96 59 13 60 81 42 30 79 32 77 17 26 1 100
Route #5: 85 72 35 70 82 64 25 4 80 19 51 20 46 37 93 5 57 16
Route #6: 15 38 21 27 91 78 54 71 44 55 86 47 36 22 23 95 62 76
Cost 11093
